NAME : TS225C.159868.tour
COMMENT : Cost = 0_159868
COMMENT : Found by LKH [Keld Helsgaun] Sun Sep 17 16:56:38 2017
TYPE : TOUR
DIMENSION : 225
TOUR_SECTION
1
126
128
3
4
5
132
131
8
10
12
136
137
138
139
140
35
135
156
158
160
58
57
56
55
181
182
183
184
185
83
86
87
211
88
190
189
188
187
186
64
62
61
162
38
39
40
41
42
43
143
144
145
44
175
75
196
197
198
199
200
100
221
222
223
224
225
125
124
123
122
121
120
119
118
117
116
115
220
219
218
217
96
95
195
194
193
192
191
70
71
72
73
172
50
150
149
148
147
146
25
24
23
22
21
20
19
141
142
18
17
16
15
14
13
11
9
7
6
133
134
32
31
30
29
28
27
26
151
152
155
51
176
177
178
179
180
76
77
201
202
203
204
205
101
102
103
104
105
106
209
210
107
108
109
110
111
112
113
114
215
214
213
212
89
90
91
92
93
94
216
97
98
99
74
174
173
171
49
48
47
46
45
166
167
168
169
170
69
68
67
66
65
63
165
164
163
161
37
36
34
33
157
159
59
60
85
84
208
207
206
82
81
80
79
78
54
53
52
154
153
130
129
127
2
-1
EOF
